c FILE: BspGraphGross.graph
c
c SOURCE: DAP2
c
p edge 30 103 
e 0 3 6 
e 0 8 5 
e 0 11 5 
e 0 16 3 
e 0 22 2 
e 1 22 5 
e 1 23 14 
e 1 29 12 
e 2 2 11 
e 2 14 3 
e 2 18 1 
e 2 21 7 
e 3 2 10 
e 3 6 10 
e 3 15 12 
e 4 0 6 
e 4 1 1 
e 4 2 5 
e 4 11 10 
e 4 13 6 
e 5 19 4 
e 5 21 13 
e 5 25 1 
e 6 0 7 
e 6 17 3 
e 6 25 12 
e 7 1 3 
e 7 11 14 
e 8 7 14 
e 8 10 7 
e 8 15 9 
e 8 26 9 
e 8 27 2 
e 8 28 5 
e 9 4 14 
e 9 11 2 
e 9 18 9 
e 9 19 5 
e 9 27 5 
e 10 3 6 
e 10 11 6 
e 10 23 14 
e 10 27 1 
e 10 28 2 
e 11 7 1 
e 11 8 11 
e 11 13 7 
e 11 18 1 
e 13 6 7 
e 13 13 5 
e 13 23 7 
e 13 28 2 
e 14 2 2 
e 14 16 2 
e 14 17 14 
e 15 0 6 
e 15 8 13 
e 15 23 2 
e 15 27 14 
e 16 5 1 
e 16 6 10 
e 16 13 8 
e 16 25 7 
e 16 29 11 
e 17 2 4 
e 17 25 1 
e 18 14 8 
e 18 21 6 
e 18 24 10 
e 19 4 9 
e 19 27 5 
e 20 7 10 
e 20 10 7 
e 20 11 7 
e 20 16 7 
e 20 17 12 
e 21 24 9 
e 21 28 7 
e 22 3 12 
e 22 7 14 
e 22 17 10 
e 22 29 11 
e 23 22 9 
e 24 12 14 
e 24 15 14 
e 24 18 13 
e 24 19 13 
e 24 20 11 
e 25 1 9 
e 25 13 7 
e 25 27 6 
e 26 4 3 
e 26 11 2 
e 27 1 4 
e 27 5 2 
e 27 12 5 
e 27 17 11 
e 27 19 4 
e 27 21 8 
e 27 29 3 
e 28 26 12 
e 28 28 13 
e 29 23 2